========================================================== 
File name: C:\DEGR\assets\definitions\MSRCPSP_Gen\200_20_64_10_A.def
Creation date: Wed May 03 10:47:19 CEST 2023
Website: http://imopse.ii.pwr.edu.pl/ 
Reference: 
Myszkowski P. B., Skowronski M. E., Olech L., Oslizlo K., 
Hybrid Ant Colony Optimization in solving Multi-Skill Resource-Constrained Project Scheduling Problem, 
Soft Computing, DOI: DOI 10.1007/s00500-014-1455-x 
========================================================== 
General characteristics: 
Tasks: 200
Resources: 20
Precedence relations: 64
Number of skill types: 10
========================================================== 
ResourceID 	 Salary 	 Skills 
1	 	 	17.9	 	 Q7: 3 	  Q5: 1 	  Q0: 3 	  Q6: 3 	  Q1: 1 	  Q4: 1 	  Q8: 2 	  Q9: 0 	 
2	 	 	49.8	 	 Q1: 3 	  Q6: 1 	  Q2: 0 	  Q3: 3 	  Q5: 2 	  Q8: 1 	  Q0: 1 	 
3	 	 	45.9	 	 Q7: 1 	  Q2: 0 	  Q1: 0 	  Q9: 3 	  Q4: 1 	  Q3: 2 	  Q5: 3 	  Q8: 1 	  Q6: 3 	 
4	 	 	84.7	 	 Q5: 1 	  Q2: 1 	  Q0: 3 	  Q3: 0 	  Q8: 1 	  Q7: 1 	  Q6: 2 	 
5	 	 	25.4	 	 Q6: 2 	  Q8: 2 	  Q4: 2 	  Q1: 2 	  Q7: 3 	  Q0: 3 	  Q9: 3 	  Q5: 1 	 
6	 	 	30.1	 	 Q5: 0 	  Q7: 0 	 
7	 	 	15.7	 	 Q5: 1 	  Q6: 2 	  Q3: 2 	  Q8: 1 	  Q0: 3 	  Q7: 2 	  Q1: 1 	 
8	 	 	22.1	 	 Q1: 0 	  Q2: 2 	  Q8: 3 	  Q5: 3 	  Q7: 0 	  Q9: 1 	  Q3: 2 	  Q0: 2 	  Q6: 0 	 
9	 	 	96.7	 	 Q7: 1 	  Q9: 2 	  Q0: 2 	  Q6: 2 	  Q4: 1 	  Q3: 3 	  Q5: 2 	  Q1: 2 	  Q2: 1 	 
10	 	 	81.4	 	 Q2: 0 	  Q0: 0 	  Q7: 2 	  Q9: 3 	  Q1: 1 	 
11	 	 	28.7	 	 Q3: 0 	  Q1: 0 	  Q9: 1 	  Q5: 1 	  Q8: 1 	  Q7: 3 	  Q2: 2 	  Q0: 3 	 
12	 	 	96.6	 	 Q5: 1 	  Q3: 3 	  Q1: 2 	  Q7: 3 	  Q9: 3 	  Q2: 2 	  Q0: 2 	  Q8: 3 	 
13	 	 	50.9	 	 Q6: 3 	  Q1: 1 	  Q3: 1 	  Q9: 1 	  Q4: 2 	  Q8: 3 	  Q5: 1 	  Q7: 3 	 
14	 	 	56.9	 	 Q1: 3 	 
15	 	 	59.3	 	 Q6: 1 	 
16	 	 	69.7	 	 Q5: 1 	  Q0: 2 	  Q8: 2 	  Q9: 0 	  Q2: 3 	  Q6: 3 	  Q7: 2 	  Q4: 2 	 
17	 	 	15.7	 	 Q5: 0 	  Q2: 3 	  Q4: 0 	 
18	 	 	27.9	 	 Q1: 1 	 
19	 	 	19.2	 	 Q0: 0 	  Q3: 1 	  Q1: 0 	 
20	 	 	47.9	 	 Q8: 3 	  Q0: 0 	 
========================================================== 
TaskID 	 Duration 	 Skill 	 Predecessor IDs 
1	10	Q9:	0
2	17	Q4:	2
3	37	Q1:	1
4	12	Q3:	1
5	26	Q8:	3
6	24	Q0:	2
7	18	Q7:	3
8	24	Q6:	0
9	40	Q5:	2
10	19	Q9:	2
11	21	Q0:	0
12	17	Q4:	0
13	18	Q2:	0
14	27	Q3:	1
15	31	Q9:	1
16	26	Q5:	1
17	14	Q5:	1
18	32	Q9:	3
19	33	Q4:	1
20	36	Q4:	0	1
21	9	Q6:	1
22	11	Q5:	1
23	40	Q8:	1
24	27	Q8:	3
25	19	Q9:	2
26	34	Q6:	1
27	25	Q6:	3
28	28	Q7:	2
29	11	Q0:	2
30	9	Q9:	2
31	19	Q1:	1
32	35	Q6:	1
33	15	Q7:	2
34	35	Q4:	2
35	13	Q0:	3
36	9	Q7:	2	20
37	28	Q7:	1
38	9	Q4:	0
39	28	Q0:	0
40	38	Q9:	0
41	23	Q1:	1
42	32	Q1:	3
43	38	Q6:	0
44	13	Q4:	2
45	10	Q9:	1
46	9	Q7:	3
47	10	Q3:	1
48	18	Q6:	1
49	20	Q7:	2
50	19	Q0:	1	35
51	11	Q4:	1
52	32	Q1:	3
53	17	Q9:	3
54	29	Q5:	0	31
55	17	Q3:	1
56	39	Q5:	2
57	36	Q1:	2	25	28
58	40	Q5:	3
59	23	Q3:	1
60	18	Q7:	0
61	16	Q7:	1	27
62	17	Q0:	0
63	29	Q9:	2
64	37	Q7:	3
65	22	Q9:	2
66	33	Q8:	3
67	29	Q4:	1	49
68	21	Q1:	0	25
69	35	Q7:	0
70	14	Q9:	2
71	14	Q0:	2
72	20	Q9:	3
73	35	Q0:	3
74	28	Q8:	2
75	21	Q2:	1
76	21	Q8:	1
77	34	Q5:	2	72
78	23	Q3:	0
79	37	Q8:	1
80	15	Q9:	1
81	19	Q3:	2	61
82	13	Q1:	2
83	9	Q9:	3
84	16	Q9:	2	23
85	10	Q0:	0
86	15	Q2:	0
87	25	Q5:	3
88	16	Q1:	0
89	36	Q2:	3
90	14	Q3:	1
91	24	Q6:	3
92	9	Q9:	2
93	32	Q6:	2
94	13	Q3:	2
95	12	Q3:	3
96	22	Q1:	0
97	33	Q0:	0
98	30	Q3:	2
99	31	Q6:	0
100	30	Q9:	0
101	12	Q0:	3
102	19	Q7:	0	41
103	36	Q6:	1
104	14	Q0:	0
105	35	Q8:	3
106	21	Q6:	1
107	36	Q8:	2
108	28	Q7:	0
109	26	Q5:	3
110	36	Q3:	1	18
111	38	Q9:	2
112	13	Q5:	0	78
113	16	Q8:	3
114	10	Q3:	3
115	22	Q6:	3
116	30	Q2:	2
117	39	Q0:	0
118	32	Q1:	2	78
119	27	Q6:	1
120	12	Q5:	3
121	24	Q3:	0
122	14	Q9:	2
123	19	Q0:	1
124	12	Q2:	1
125	27	Q0:	3	4
126	22	Q5:	0
127	30	Q5:	1
128	19	Q9:	1	61
129	15	Q4:	0
130	26	Q6:	3
131	19	Q2:	0	70
132	37	Q2:	0	27	69
133	40	Q7:	1
134	14	Q9:	2
135	39	Q4:	0	94	114
136	38	Q9:	2
137	25	Q2:	1	119
138	20	Q6:	3
139	29	Q1:	0
140	34	Q1:	3
141	24	Q4:	1
142	34	Q8:	2
143	21	Q7:	3
144	18	Q0:	1	78
145	32	Q3:	1
146	35	Q4:	1
147	28	Q3:	1
148	10	Q6:	2	48	95
149	30	Q5:	2	8
150	26	Q8:	1
151	11	Q0:	0	63	125
152	37	Q7:	0	138
153	39	Q6:	2	144
154	32	Q1:	3	151	88
155	17	Q9:	2
156	24	Q4:	1
157	19	Q1:	0	133
158	17	Q2:	0
159	23	Q2:	2
160	30	Q3:	1	2
161	9	Q7:	0
162	21	Q8:	1
163	33	Q6:	3
164	26	Q4:	1	117
165	25	Q7:	2	88	18
166	17	Q8:	1
167	34	Q8:	2	164
168	37	Q8:	1	34
169	24	Q7:	1
170	28	Q6:	3	127	7	44
171	40	Q0:	1
172	27	Q7:	2	51
173	35	Q9:	0
174	33	Q3:	3
175	30	Q6:	1	171
176	21	Q3:	1	39
177	27	Q1:	2	150	157
178	35	Q1:	1	42
179	13	Q0:	0
180	39	Q4:	2
181	38	Q8:	1	21
182	9	Q3:	2	144
183	15	Q7:	2	94
184	18	Q7:	2
185	35	Q2:	2
186	34	Q2:	2	54
187	9	Q4:	2
188	20	Q9:	3	152
189	15	Q5:	3	54
190	34	Q6:	2
191	37	Q8:	3	148	45
192	35	Q9:	2	56
193	20	Q4:	2
194	36	Q9:	0
195	32	Q1:	1	11
196	21	Q7:	2
197	22	Q4:	1	166
198	15	Q0:	1	117
199	40	Q3:	3	150	27
200	36	Q2:	2
========================================================== 